p cnf 285 312
-1 241 -242 -245 -247 -250 -261 -262 0 
-2 217 241 -242 -245 -247 -250 -261 -262 0 
-2 217 242 -241 -245 -247 -250 -261 -262 0 
-1 242 -241 -245 -247 -250 -261 -262 0 
-3 134 242 -241 -245 -247 -250 -261 -262 0 
-4 241 -242 -245 -247 -250 -261 -262 0 
-5 131 188 243 -241 -242 -245 -247 -250 -261 -262 0 
-6 244 -241 -242 -245 -247 -250 -261 -262 -33 -43 0 
-7 245 -241 -242 -247 -250 -261 -262 0 
-8 246 -13 -150 0 
-9 -10 67 73 77 92 121 165 216 230 231 247 -241 -242 -245 -250 -261 -262 0 
-11 72 -12 248 -241 -242 -245 -247 -250 -261 -262 0 
-13 150 246 249 -241 -242 -245 -247 -250 -261 -262 -3 -134 0 
-14 209 -15 140 247 -241 -242 -245 -250 -261 -262 0 
-16 30 46 52 70 79 114 116 129 141 166 173 177 178 183 185 193 195 199 202 228 237 247 -241 -242 -245 -250 -261 -262 0 
-12 -17 189 248 -241 -242 -245 -247 -250 -261 -262 0 
-18 142 233 -19 21 24 26 32 54 55 56 66 80 139 214 227 232 250 -241 -242 -245 -247 -261 -262 0 
-20 -21 19 24 26 32 54 55 56 66 80 139 214 227 232 250 -241 -242 -245 -247 -261 -262 0 
-22 241 -242 -245 -247 -250 -261 -262 0 
-23 250 -241 -242 -245 -247 -261 -262 0 
-24 19 21 26 32 54 55 56 66 80 139 214 227 232 251 -241 -242 -245 -247 -250 -261 -262 -76 0 
-25 245 -241 -242 -247 -250 -261 -262 0 
-26 19 21 24 32 54 55 56 66 80 139 214 227 232 245 -241 -242 -247 -250 -261 -262 0 
-27 -28 249 -241 -242 -245 -247 -250 -261 -262 -3 -134 0 
-26 19 21 24 32 54 55 56 66 80 139 214 227 232 250 -241 -242 -245 -247 -261 -262 0 
-29 40 45 68 113 120 122 125 126 127 137 158 175 179 182 191 194 196 219 234 251 -241 -242 -245 -247 -250 -261 -262 -76 0 
-30 16 46 52 70 79 114 116 129 141 166 173 177 178 183 185 193 195 199 202 228 237 251 -241 -242 -245 -247 -250 -261 -262 -76 0 
-25 250 -241 -242 -245 -247 -261 -262 0 
-31 148 245 -241 -242 -247 -250 -261 -262 0 
-32 19 21 24 26 54 55 56 66 80 139 214 227 232 252 -241 -242 -245 -247 -250 -261 -262 -36 -63 -115 -133 -174 -184 -192 0 
-33 43 -34 57 149 159 250 -241 -242 -245 -247 -261 -262 0 
-35 -36 63 115 133 174 184 192 242 -241 -245 -247 -250 -261 -262 0 
-37 -38 -33 43 -5 131 188 251 -241 -242 -245 -247 -250 -261 -262 -76 0 
-39 93 95 181 250 -241 -242 -245 -247 -261 -262 0 
-33 43 251 -241 -242 -245 -247 -250 -261 -262 -76 0 
-40 29 45 68 113 120 122 125 126 127 137 158 175 179 182 191 194 196 219 234 244 -241 -242 -245 -247 -250 -261 -262 -33 -43 0 
-33 43 245 -241 -242 -247 -250 -261 -262 0 
-41 208 244 -241 -242 -245 -247 -250 -261 -262 -33 -43 0 
-35 -42 100 253 -241 -242 -245 -247 -250 -261 -262 0 
-43 33 241 -242 -245 -247 -250 -261 -262 0 
-44 224 249 -241 -242 -245 -247 -250 -261 -262 -3 -134 0 
-45 29 40 68 113 120 122 125 126 127 137 158 175 179 182 191 194 196 219 234 247 -241 -242 -245 -250 -261 -262 0 
-46 16 30 52 70 79 114 116 129 141 166 173 177 178 183 185 193 195 199 202 228 237 254 -241 -242 -245 -247 -250 -261 -262 0 
-37 -5 131 188 -47 255 -241 -242 -245 -247 -250 -261 -262 0 
-48 249 -241 -242 -245 -247 -250 -261 -262 -3 -134 0 
-49 -50 245 -241 -242 -247 -250 -261 -262 0 
-51 241 -242 -245 -247 -250 -261 -262 0 
-52 16 30 46 70 79 114 116 129 141 166 173 177 178 183 185 193 195 199 202 228 237 250 -241 -242 -245 -247 -261 -262 0 
-53 250 -241 -242 -245 -247 -261 -262 0 
-50 245 -241 -242 -247 -250 -261 -262 0 
-51 242 -241 -245 -247 -250 -261 -262 0 
-54 19 21 24 26 32 55 56 66 80 139 214 227 232 242 -241 -245 -247 -250 -261 -262 0 
-55 19 21 24 26 32 54 56 66 80 139 214 227 232 242 -241 -245 -247 -250 -261 -262 0 
-56 19 21 24 26 32 54 55 66 80 139 214 227 232 242 -241 -245 -247 -250 -261 -262 0 
-14 209 247 -241 -242 -245 -250 -261 -262 0 
-57 34 149 159 247 -241 -242 -245 -250 -261 -262 0 
-58 156 247 -241 -242 -245 -250 -261 -262 0 
-59 250 -241 -242 -245 -247 -261 -262 0 
-60 245 -241 -242 -247 -250 -261 -262 0 
-60 250 -241 -242 -245 -247 -261 -262 0 
-61 -12 248 -241 -242 -245 -247 -250 -261 -262 0 
-62 245 -241 -242 -247 -250 -261 -262 0 
-33 43 -31 148 245 -241 -242 -247 -250 -261 -262 0 
-7 -63 36 115 133 174 184 192 245 -241 -242 -247 -250 -261 -262 0 
-13 150 246 244 -241 -242 -245 -247 -250 -261 -262 -33 -43 0 
-35 242 -241 -245 -247 -250 -261 -262 0 
-37 -38 -26 19 21 24 32 54 55 56 66 80 139 214 227 232 245 -241 -242 -247 -250 -261 -262 0 
-64 245 -241 -242 -247 -250 -261 -262 0 
-35 241 -242 -245 -247 -250 -261 -262 0 
-64 250 -241 -242 -245 -247 -261 -262 0 
-65 245 -241 -242 -247 -250 -261 -262 0 
-66 19 21 24 26 32 54 55 56 80 139 214 227 232 -35 242 -241 -245 -247 -250 -261 -262 0 
-66 19 21 24 26 32 54 55 56 80 139 214 227 232 -35 241 -242 -245 -247 -250 -261 -262 0 
-67 10 73 77 92 121 165 216 230 231 251 -241 -242 -245 -247 -250 -261 -262 -76 0 
-10 67 73 77 92 121 165 216 230 231 247 -241 -242 -245 -250 -261 -262 0 
-68 29 40 45 113 120 122 125 126 127 137 158 175 179 182 191 194 196 219 234 256 -241 -242 -245 -247 -250 -261 -262 0 
-69 205 256 -241 -242 -245 -247 -250 -261 -262 0 
-70 16 30 46 52 79 114 116 129 141 166 173 177 178 183 185 193 195 199 202 228 237 256 -241 -242 -245 -247 -250 -261 -262 0 
-11 72 -71 248 -241 -242 -245 -247 -250 -261 -262 0 
-72 11 243 -241 -242 -245 -247 -250 -261 -262 0 
-73 10 67 77 92 121 165 216 230 231 -74 210 -28 -75 -76 249 -241 -242 -245 -247 -250 -261 -262 -3 -134 0 
-77 10 67 73 92 121 165 216 230 231 247 -241 -242 -245 -250 -261 -262 0 
-78 -40 29 45 68 113 120 122 125 126 127 137 158 175 179 182 191 194 196 219 234 -79 16 30 46 52 70 114 116 129 141 166 173 177 178 183 185 193 195 199 202 228 237 -80 19 21 24 26 32 54 55 56 66 139 214 227 232 244 -241 -242 -245 -247 -250 -261 -262 -33 -43 0 
-81 255 -241 -242 -245 -247 -250 -261 -262 0 
-82 249 -241 -242 -245 -247 -250 -261 -262 -3 -134 0 
-83 170 -84 257 0 
-85 247 -241 -242 -245 -250 -261 -262 0 
-86 102 118 258 -241 -242 -245 -247 -250 -261 -262 0 
-86 102 118 252 -241 -242 -245 -247 -250 -261 -262 -36 -63 -115 -133 -174 -184 -192 0 
-87 259 -241 -242 -245 -247 -250 -261 -262 0 
-58 156 260 -239 -241 -242 -245 -247 -250 -261 -262 0 
-76 -75 -28 -88 101 105 249 -241 -242 -245 -247 -250 -261 -262 -3 -134 0 
-15 140 247 -241 -242 -245 -250 -261 -262 0 
-89 247 -241 -242 -245 -250 -261 -262 0 
-75 -28 249 -241 -242 -245 -247 -250 -261 -262 -3 -134 0 
-90 247 -241 -242 -245 -250 -261 -262 0 
-91 247 -241 -242 -245 -250 -261 -262 0 
-92 10 67 73 77 121 165 216 230 231 247 -241 -242 -245 -250 -261 -262 0 
-83 170 -75 -37 -38 -28 249 -241 -242 -245 -247 -250 -261 -262 -3 -134 0 
-31 148 -93 39 95 181 255 -241 -242 -245 -247 -250 -261 -262 0 
-28 249 -241 -242 -245 -247 -250 -261 -262 -3 -134 0 
-94 244 -241 -242 -245 -247 -250 -261 -262 -33 -43 0 
-31 148 -95 39 93 181 255 -241 -242 -245 -247 -250 -261 -262 0 
-96 153 180 218 221 245 -241 -242 -247 -250 -261 -262 0 
-97 250 -241 -242 -245 -247 -261 -262 0 
-98 247 -241 -242 -245 -250 -261 -262 0 
-99 249 -241 -242 -245 -247 -250 -261 -262 -3 -134 0 
-100 42 249 -241 -242 -245 -247 -250 -261 -262 -3 -134 0 
-101 88 105 249 -241 -242 -245 -247 -250 -261 -262 -3 -134 0 
-44 224 -74 210 249 -241 -242 -245 -247 -250 -261 -262 -3 -134 0 
-64 249 -241 -242 -245 -247 -250 -261 -262 -3 -134 0 
-102 86 118 249 -241 -242 -245 -247 -250 -261 -262 -3 -134 0 
-40 29 45 68 113 120 122 125 126 127 137 158 175 179 182 191 194 196 219 234 255 -241 -242 -245 -247 -250 -261 -262 0 
-103 -104 -105 88 101 249 -241 -242 -245 -247 -250 -261 -262 -3 -134 0 
-106 249 -241 -242 -245 -247 -250 -261 -262 -3 -134 0 
-107 249 -241 -242 -245 -247 -250 -261 -262 -3 -134 0 
-48 -108 -102 86 118 249 -241 -242 -245 -247 -250 -261 -262 -3 -134 0 
-100 42 243 -241 -242 -245 -247 -250 -261 -262 0 
-109 249 -241 -242 -245 -247 -250 -261 -262 -3 -134 0 
-110 -111 -102 86 118 249 -241 -242 -245 -247 -250 -261 -262 -3 -134 0 
-112 -105 88 101 249 -241 -242 -245 -247 -250 -261 -262 -3 -134 0 
-3 134 241 -242 -245 -247 -250 -261 -262 0 
-113 29 40 45 68 120 122 125 126 127 137 158 175 179 182 191 194 196 219 234 261 -241 -242 -245 -247 -250 -262 0 
-114 16 30 46 52 70 79 116 129 141 166 173 177 178 183 185 193 195 199 202 228 237 261 -241 -242 -245 -247 -250 -262 0 
-113 29 40 45 68 120 122 125 126 127 137 158 175 179 182 191 194 196 219 234 262 -241 -242 -245 -247 -250 -261 0 
-25 -115 36 63 133 174 184 192 250 -241 -242 -245 -247 -261 -262 0 
-116 16 30 46 52 70 79 114 129 141 166 173 177 178 183 185 193 195 199 202 228 237 243 -241 -242 -245 -247 -250 -261 -262 0 
-117 250 -241 -242 -245 -247 -261 -262 0 
-73 10 67 77 92 121 165 216 230 231 -118 86 102 249 -241 -242 -245 -247 -250 -261 -262 -3 -134 0 
-119 245 -241 -242 -247 -250 -261 -262 0 
-120 29 40 45 68 113 122 125 126 127 137 158 175 179 182 191 194 196 219 234 254 -241 -242 -245 -247 -250 -261 -262 0 
-121 10 67 73 77 92 165 216 230 231 -115 36 63 133 174 184 192 245 -241 -242 -247 -250 -261 -262 0 
-122 29 40 45 68 113 120 125 126 127 137 158 175 179 182 191 194 196 219 234 261 -241 -242 -245 -247 -250 -262 0 
-123 -72 11 -124 243 -241 -242 -245 -247 -250 -261 -262 0 
-125 29 40 45 68 113 120 122 126 127 137 158 175 179 182 191 194 196 219 234 262 -241 -242 -245 -247 -250 -261 0 
-126 29 40 45 68 113 120 122 125 127 137 158 175 179 182 191 194 196 219 234 247 -241 -242 -245 -250 -261 -262 0 
-127 29 40 45 68 113 120 122 125 126 137 158 175 179 182 191 194 196 219 234 -128 -129 16 30 46 52 70 79 114 116 141 166 173 177 178 183 185 193 195 199 202 228 237 -130 -100 42 249 -241 -242 -245 -247 -250 -261 -262 -3 -134 0 
-122 29 40 45 68 113 120 125 126 127 137 158 175 179 182 191 194 196 219 234 262 -241 -242 -245 -247 -250 -261 0 
-14 209 263 -241 -242 -245 -247 -250 -261 -262 0 
-114 16 30 46 52 70 79 116 129 141 166 173 177 178 183 185 193 195 199 202 228 237 262 -241 -242 -245 -247 -250 -261 0 
-131 5 188 249 -241 -242 -245 -247 -250 -261 -262 -3 -134 0 
-131 5 188 -128 242 -241 -245 -247 -250 -261 -262 0 
-132 154 -133 36 63 115 174 184 192 261 -241 -242 -245 -247 -250 -262 0 
-132 154 -133 36 63 115 174 184 192 262 -241 -242 -245 -247 -250 -261 0 
-134 3 251 -241 -242 -245 -247 -250 -261 -262 -76 0 
-131 5 188 -3 134 241 -242 -245 -247 -250 -261 -262 0 
-131 5 188 -3 134 242 -241 -245 -247 -250 -261 -262 0 
-135 249 -241 -242 -245 -247 -250 -261 -262 -3 -134 0 
-136 264 -241 -242 -245 -247 -250 -261 -262 0 
-137 29 40 45 68 113 120 122 125 126 127 158 175 179 182 191 194 196 219 234 245 -241 -242 -247 -250 -261 -262 0 
-138 143 204 207 247 -241 -242 -245 -250 -261 -262 0 
-139 19 21 24 26 32 54 55 56 66 80 214 227 232 245 -241 -242 -247 -250 -261 -262 0 
-140 15 -141 16 30 46 52 70 79 114 116 129 166 173 177 178 183 185 193 195 199 202 228 237 245 -241 -242 -247 -250 -261 -262 0 
-142 18 233 250 -241 -242 -245 -247 -261 -262 0 
-143 138 204 207 247 -241 -242 -245 -250 -261 -262 0 
-38 -100 42 261 -241 -242 -245 -247 -250 -262 0 
-144 261 -241 -242 -245 -247 -250 -262 0 
-145 262 -241 -242 -245 -247 -250 -261 0 
-20 245 -241 -242 -247 -250 -261 -262 0 
-146 262 -241 -242 -245 -247 -250 -261 0 
-147 261 -241 -242 -245 -247 -250 -262 0 
-147 262 -241 -242 -245 -247 -250 -261 0 
-148 31 -149 34 57 159 -136 265 -241 -242 -245 -247 -250 -261 -262 0 
-150 13 246 244 -241 -242 -245 -247 -250 -261 -262 -33 -43 0 
-151 250 -241 -242 -245 -247 -261 -262 0 
-149 34 57 159 265 -241 -242 -245 -247 -250 -261 -262 0 
-43 33 242 -241 -245 -247 -250 -261 -262 0 
-97 265 -241 -242 -245 -247 -250 -261 -262 0 
-152 -153 96 180 218 221 251 -241 -242 -245 -247 -250 -261 -262 -76 0 
-154 132 244 -241 -242 -245 -247 -250 -261 -262 -33 -43 0 
-155 265 -241 -242 -245 -247 -250 -261 -262 0 
-79 16 30 46 52 70 114 116 129 141 166 173 177 178 183 185 193 195 199 202 228 237 244 -241 -242 -245 -247 -250 -261 -262 -33 -43 0 
-40 29 45 68 113 120 122 125 126 127 137 158 175 179 182 191 194 196 219 234 -153 96 180 218 221 250 -241 -242 -245 -247 -261 -262 0 
-33 43 250 -241 -242 -245 -247 -261 -262 0 
-156 58 265 -241 -242 -245 -247 -250 -261 -262 0 
-151 245 -241 -242 -247 -250 -261 -262 0 
-33 43 -157 251 -241 -242 -245 -247 -250 -261 -262 -76 0 
-77 10 67 73 92 121 165 216 230 231 266 -172 -241 -242 -245 -247 -250 -261 -262 0 
-15 140 252 -241 -242 -245 -247 -250 -261 -262 -36 -63 -115 -133 -174 -184 -192 0 
-77 10 67 73 92 121 165 216 230 231 252 -241 -242 -245 -247 -250 -261 -262 -36 -63 -115 -133 -174 -184 -192 0 
-77 10 67 73 92 121 165 216 230 231 267 -241 -242 -245 -247 -250 -261 -262 0 
-158 29 40 45 68 113 120 122 125 126 127 137 175 179 182 191 194 196 219 234 268 -241 -242 -245 -247 -250 -261 -262 0 
-36 63 115 133 174 184 192 -35 242 -241 -245 -247 -250 -261 -262 0 
-159 34 57 149 242 -241 -245 -247 -250 -261 -262 0 
-15 140 -160 252 -241 -242 -245 -247 -250 -261 -262 -36 -63 -115 -133 -174 -184 -192 0 
-22 -161 162 241 -242 -245 -247 -250 -261 -262 0 
-162 161 -163 -164 242 -241 -245 -247 -250 -261 -262 0 
-162 161 -163 -164 241 -242 -245 -247 -250 -261 -262 0 
-165 10 67 73 77 92 121 216 230 231 -164 250 -241 -242 -245 -247 -261 -262 0 
-166 16 30 46 52 70 79 114 116 129 141 173 177 178 183 185 193 195 199 202 228 237 250 -241 -242 -245 -247 -261 -262 0 
-167 245 -241 -242 -247 -250 -261 -262 0 
-167 250 -241 -242 -245 -247 -261 -262 0 
-168 -39 93 95 181 255 -241 -242 -245 -247 -250 -261 -262 0 
-169 211 255 -241 -242 -245 -247 -250 -261 -262 0 
-170 83 269 -241 -242 -245 -247 -250 -261 -262 0 
-171 -172 270 0 
-83 170 271 0 
-83 170 272 0 
-171 273 0 
-171 274 -241 -242 -245 -247 -250 -261 -262 0 
-83 170 275 0 
-171 276 0 
-83 170 277 0 
-170 83 278 0 
-83 170 279 0 
-83 170 280 -241 -242 -245 -247 -250 -261 -262 0 
-173 16 30 46 52 70 79 114 116 129 141 166 177 178 183 185 193 195 199 202 228 237 261 -241 -242 -245 -247 -250 -262 0 
-108 249 -241 -242 -245 -247 -250 -261 -262 -3 -134 0 
-174 36 63 115 133 184 192 -175 29 40 45 68 113 120 122 125 126 127 137 158 179 182 191 194 196 219 234 243 -241 -242 -245 -247 -250 -261 -262 0 
-176 243 -241 -242 -245 -247 -250 -261 -262 0 
-92 10 67 73 77 121 165 216 230 231 -45 29 40 68 113 120 122 125 126 127 137 158 175 179 182 191 194 196 219 234 247 -241 -242 -245 -250 -261 -262 0 
-176 281 -241 -242 -245 -247 -250 -261 -262 0 
-83 170 -177 16 30 46 52 70 79 114 116 129 141 166 173 178 183 185 193 195 199 202 228 237 -89 247 -241 -242 -245 -250 -261 -262 0 
-178 16 30 46 52 70 79 114 116 129 141 166 173 177 183 185 193 195 199 202 228 237 250 -241 -242 -245 -247 -261 -262 0 
-178 16 30 46 52 70 79 114 116 129 141 166 173 177 183 185 193 195 199 202 228 237 245 -241 -242 -247 -250 -261 -262 0 
-179 29 40 45 68 113 120 122 125 126 127 137 158 175 182 191 194 196 219 234 245 -241 -242 -247 -250 -261 -262 0 
-38 -35 241 -242 -245 -247 -250 -261 -262 0 
-180 96 153 218 221 251 -241 -242 -245 -247 -250 -261 -262 -76 0 
-179 29 40 45 68 113 120 122 125 126 127 137 158 175 182 191 194 196 219 234 -181 39 93 95 250 -241 -242 -245 -247 -261 -262 0 
-182 29 40 45 68 113 120 122 125 126 127 137 158 175 179 191 194 196 219 234 -35 242 -241 -245 -247 -250 -261 -262 0 
-140 15 -181 39 93 95 245 -241 -242 -247 -250 -261 -262 0 
-9 -35 242 -241 -245 -247 -250 -261 -262 0 
-9 -35 241 -242 -245 -247 -250 -261 -262 0 
-37 -183 16 30 46 52 70 79 114 116 129 141 166 173 177 178 185 193 195 199 202 228 237 -57 34 149 159 252 -241 -242 -245 -247 -250 -261 -262 -36 -63 -115 -133 -174 -184 -192 0 
-37 -183 16 30 46 52 70 79 114 116 129 141 166 173 177 178 185 193 195 199 202 228 237 -57 34 149 159 282 -241 -242 -245 -247 -250 -261 -262 0 
-15 140 -89 282 -241 -242 -245 -247 -250 -261 -262 0 
-184 36 63 115 133 174 192 -32 19 21 24 26 54 55 56 66 80 139 214 227 232 245 -241 -242 -247 -250 -261 -262 0 
-35 -143 138 204 207 242 -241 -245 -247 -250 -261 -262 0 
-15 140 -89 252 -241 -242 -245 -247 -250 -261 -262 -36 -63 -115 -133 -174 -184 -192 0 
-173 16 30 46 52 70 79 114 116 129 141 166 177 178 183 185 193 195 199 202 228 237 262 -241 -242 -245 -247 -250 -261 0 
-185 16 30 46 52 70 79 114 116 129 141 166 173 177 178 183 193 195 199 202 228 237 262 -241 -242 -245 -247 -250 -261 0 
-186 -3 134 241 -242 -245 -247 -250 -261 -262 0 
-75 -121 10 67 73 77 92 165 216 230 231 249 -241 -242 -245 -247 -250 -261 -262 -3 -134 0 
-186 -3 134 242 -241 -245 -247 -250 -261 -262 0 
-185 16 30 46 52 70 79 114 116 129 141 166 173 177 178 183 193 195 199 202 228 237 261 -241 -242 -245 -247 -250 -262 0 
-187 255 -241 -242 -245 -247 -250 -261 -262 0 
-188 5 131 243 -241 -242 -245 -247 -250 -261 -262 0 
-189 17 -12 248 -241 -242 -245 -247 -250 -261 -262 0 
-124 243 -241 -242 -245 -247 -250 -261 -262 0 
-190 -191 29 40 45 68 113 120 122 125 126 127 137 158 175 179 182 194 196 219 234 283 -241 -242 -245 -247 -250 -261 -262 0 
-25 249 -241 -242 -245 -247 -250 -261 -262 -3 -134 0 
-30 16 46 52 70 79 114 116 129 141 166 173 177 178 183 185 193 195 199 202 228 237 245 -241 -242 -247 -250 -261 -262 0 
-192 36 63 115 133 174 184 245 -241 -242 -247 -250 -261 -262 0 
-94 249 -241 -242 -245 -247 -250 -261 -262 -3 -134 0 
-193 16 30 46 52 70 79 114 116 129 141 166 173 177 178 183 185 195 199 202 228 237 245 -241 -242 -247 -250 -261 -262 0 
-7 250 -241 -242 -245 -247 -261 -262 0 
-121 10 67 73 77 92 165 216 230 231 -74 210 -44 224 249 -241 -242 -245 -247 -250 -261 -262 -3 -134 0 
-194 29 40 45 68 113 120 122 125 126 127 137 158 175 179 182 191 196 219 234 245 -241 -242 -247 -250 -261 -262 0 
-47 255 -241 -242 -245 -247 -250 -261 -262 0 
-37 -195 16 30 46 52 70 79 114 116 129 141 166 173 177 178 183 185 193 199 202 228 237 251 -241 -242 -245 -247 -250 -261 -262 -76 0 
-196 29 40 45 68 113 120 122 125 126 127 137 158 175 179 182 191 194 219 234 242 -241 -245 -247 -250 -261 -262 0 
-83 170 -29 40 45 68 113 120 122 125 126 127 137 158 175 179 182 191 194 196 219 234 251 -241 -242 -245 -247 -250 -261 -262 -76 0 
-196 29 40 45 68 113 120 122 125 126 127 137 158 175 179 182 191 194 219 234 241 -242 -245 -247 -250 -261 -262 0 
-197 250 -241 -242 -245 -247 -261 -262 0 
-20 -121 10 67 73 77 92 165 216 230 231 250 -241 -242 -245 -247 -261 -262 0 
-117 245 -241 -242 -247 -250 -261 -262 0 
-9 -195 16 30 46 52 70 79 114 116 129 141 166 173 177 178 183 185 193 199 202 228 237 251 -241 -242 -245 -247 -250 -261 -262 -76 0 
-198 252 -241 -242 -245 -247 -250 -261 -262 -36 -63 -115 -133 -174 -184 -192 0 
-199 16 30 46 52 70 79 114 116 129 141 166 173 177 178 183 185 193 195 202 228 237 247 -241 -242 -245 -250 -261 -262 0 
-179 29 40 45 68 113 120 122 125 126 127 137 158 175 182 191 194 196 219 234 250 -241 -242 -245 -247 -261 -262 0 
-200 250 -241 -242 -245 -247 -261 -262 0 
-201 245 -241 -242 -247 -250 -261 -262 0 
-123 243 -241 -242 -245 -247 -250 -261 -262 0 
-38 -202 16 30 46 52 70 79 114 116 129 141 166 173 177 178 183 185 193 195 199 228 237 245 -241 -242 -247 -250 -261 -262 0 
-203 -204 138 143 207 -205 69 284 -241 -242 -245 -247 -250 -261 -262 0 
-206 241 -242 -245 -247 -250 -261 -262 0 
-18 142 233 -207 138 143 204 262 -241 -242 -245 -247 -250 -261 0 
-64 242 -241 -245 -247 -250 -261 -262 0 
-64 241 -242 -245 -247 -250 -261 -262 0 
-121 10 67 73 77 92 165 216 230 231 -207 138 143 204 261 -241 -242 -245 -247 -250 -262 0 
-206 242 -241 -245 -247 -250 -261 -262 0 
-75 -18 142 233 -76 249 -241 -242 -245 -247 -250 -261 -262 -3 -134 0 
-187 -157 -208 41 -31 148 -5 131 188 255 -241 -242 -245 -247 -250 -261 -262 0 
-209 14 -140 15 -47 255 -241 -242 -245 -247 -250 -261 -262 0 
-210 74 249 -241 -242 -245 -247 -250 -261 -262 -3 -134 0 
-9 249 -241 -242 -245 -247 -250 -261 -262 -3 -134 0 
-124 -188 5 131 243 -241 -242 -245 -247 -250 -261 -262 0 
-211 169 255 -241 -242 -245 -247 -250 -261 -262 0 
-35 -34 57 149 159 242 -241 -245 -247 -250 -261 -262 0 
-140 15 -134 3 -212 250 -241 -242 -245 -247 -261 -262 0 
-134 3 245 -241 -242 -247 -250 -261 -262 0 
-213 -134 3 -214 19 21 24 26 32 54 55 56 66 80 139 227 232 245 -241 -242 -247 -250 -261 -262 0 
-134 3 250 -241 -242 -245 -247 -261 -262 0 
-215 -161 162 250 -241 -242 -245 -247 -261 -262 0 
-216 10 67 73 77 92 121 165 230 231 -217 2 250 -241 -242 -245 -247 -261 -262 0 
-218 96 153 180 221 241 -242 -245 -247 -250 -261 -262 0 
-219 29 40 45 68 113 120 122 125 126 127 137 158 175 179 182 191 194 196 234 -220 242 -241 -245 -247 -250 -261 -262 0 
-221 96 153 180 218 245 -241 -242 -247 -250 -261 -262 0 
-216 10 67 73 77 92 121 165 230 231 250 -241 -242 -245 -247 -261 -262 0 
-37 -137 29 40 45 68 113 120 122 125 126 127 158 175 179 182 191 194 196 219 234 245 -241 -242 -247 -250 -261 -262 0 
-222 -37 -223 -34 57 149 159 252 -241 -242 -245 -247 -250 -261 -262 -36 -63 -115 -133 -174 -184 -192 0 
-139 19 21 24 26 32 54 55 56 66 80 214 227 232 -34 57 149 159 250 -241 -242 -245 -247 -261 -262 0 
-224 44 252 -241 -242 -245 -247 -250 -261 -262 -36 -63 -115 -133 -174 -184 -192 0 
-9 -219 29 40 45 68 113 120 122 125 126 127 137 158 175 179 182 191 194 196 234 241 -242 -245 -247 -250 -261 -262 0 
-225 285 -241 -242 -245 -247 -250 -261 -262 -34 -57 -149 -159 0 
-97 -63 36 115 133 174 184 192 245 -241 -242 -247 -250 -261 -262 0 
-174 36 63 115 133 184 192 250 -241 -242 -245 -247 -261 -262 0 
-226 -227 19 21 24 26 32 54 55 56 66 80 139 214 232 241 -242 -245 -247 -250 -261 -262 0 
-35 -138 143 204 207 242 -241 -245 -247 -250 -261 -262 0 
-228 16 30 46 52 70 79 114 116 129 141 166 173 177 178 183 185 193 195 199 202 237 268 -241 -242 -245 -247 -250 -261 -262 0 
-35 -138 143 204 207 241 -242 -245 -247 -250 -261 -262 0 
-37 -128 -229 249 -241 -242 -245 -247 -250 -261 -262 -3 -134 0 
-80 19 21 24 26 32 54 55 56 66 139 214 227 232 -230 10 67 73 77 92 121 165 216 231 244 -241 -242 -245 -247 -250 -261 -262 -33 -43 0 
-231 10 67 73 77 92 121 165 216 230 -232 19 21 24 26 32 54 55 56 66 80 139 214 227 260 -239 -241 -242 -245 -247 -250 -261 -262 0 
-54 19 21 24 26 32 55 56 66 80 139 214 227 232 268 -241 -242 -245 -247 -250 -261 -262 0 
-195 16 30 46 52 70 79 114 116 129 141 166 173 177 178 183 185 193 199 202 228 237 -233 18 142 251 -241 -242 -245 -247 -250 -261 -262 -76 0 
-234 29 40 45 68 113 120 122 125 126 127 137 158 175 179 182 191 194 196 219 242 -241 -245 -247 -250 -261 -262 0 
-235 245 -241 -242 -247 -250 -261 -262 0 
-236 266 -172 -241 -242 -245 -247 -250 -261 -262 0 
-237 16 30 46 52 70 79 114 116 129 141 166 173 177 178 183 185 193 195 199 202 228 -238 267 -241 -242 -245 -247 -250 -261 -262 0 
-239 252 -241 -242 -245 -247 -250 -261 -262 -36 -63 -115 -133 -174 -184 -192 0 
-240 263 -241 -242 -245 -247 -250 -261 -262 0 
